443 448
473 478
503 508
533 538
563 568
593 598
623 628
653 658
713 718
743 748
773 778
803 808
833 838
863 868
893 898
923 928
953 958
983 988
1013 1018
1043 1048
1073 1078
1103 1108
1133 1138
1163 1168
1193 1198
1223 1228
1253 1258
1283 1288
1313 1318
1343 1348
1373 1378
1403 1408
1433 1438
1463 1468